Optimize a model with 2 rows, 5 columns and 10 nonzeros
Coefficient statistics:
  Matrix range    [0e+00, 3e+00]
  Objective range [1e+01, 3e+01]
  Bounds range    [0e+00, 0e+00]
  RHS range       [1e+01, 2e+01]
Presolve removed 0 rows and 3 columns
Presolve time: 0.00s
Presolved: 2 rows, 2 columns, 4 nonzeros

Iteration    Objective       Primal Inf.    Dual Inf.      Time
       0    0.0000000e+00   1.650000e+01   0.000000e+00      0s
       2    1.3100000e+02   0.000000e+00   0.000000e+00      0s

Solved in 2 iterations and 0.00 seconds
Optimal objective  1.310000000e+02

Optimization complete

Variables:
V Name      Value    Red. Cost
  x1         0.0      11.3333
  x2         0.0       6.6667
  x3         0.0      11.3333
  x4         1.0       0.0000
  x5        10.0       0.0000

Optimal objective: 1.3100e+02

Constraints:
 C Name     Slack    Dual Value
   iron      0.0       4.3333
calcium      0.0       3.3333

